n_res = 5;
n_events = 102;
n_prec = 518;
source = 1;
sink = 102;
min_lvl = [1, -7, -4, -13, -25];
max_lvl = [19, 9, 9, -2, 3];
rr = [| 0, -1, 0, 0, 2, 0, -1, 0, -1, 1, 0, 1, 0, 2, 0, 1, -1, -2, 0, 1, 0, 2, 0, 1, 0, 0, 2, 1, 2, -2, 0, 0, 0, 2, 0, -1, -1, 1, 0, 2, 0, 2, -1, 2, 1, 0, 2, -1, 0, 1, 2, 0, 2, -1, 0, -1, 0, -2, -1, -2, 1, 1, 0, -1, -1, -1, 2, 0, -2, 0, 0, 0, -2, -2, 0, 0, 0, 0, 0, 0, 2, -2, -2, 0, 0, 0, -1, 0, 0, 2, 2, 0, -2, 0, 2, 0, 2, 2, 0, 1, 1, 0
      | 0, -1, 0, 0, 1, 0, 0, 2, 1, 2, 2, 2, -2, -1, -2, 2, 2, 1, 0, -2, 0, 2, -1, -1, 1, 2, 0, -1, -2, 0, -1, 0, 0, 0, 2, 0, -1, 0, 0, 0, 0, 1, -2, 0, -1, -1, 2, -2, 2, -1, -2, -1, -1, 0, 0, -2, 0, -2, 1, -1, 0, 2, 0, 0, -1, 0, -2, 2, 2, 0, 1, 0, 0, 1, -1, -2, -1, 2, 0, 0, -1, 2, 2, 0, 0, 0, -2, 2, -1, 1, 2, -1, -1, -2, -2, 0, 1, 0, 0, -1, 2, 0
      | 0, -1, 0, 0, 0, 2, -2, -1, -2, 0, 0, -2, 0, -1, 0, 0, 2, 0, 0, 0, -1, 1, 0, 0, -2, 0, 1, 2, 0, -2, -2, 1, -2, 0, 2, -2, 0, 0, 0, 2, -2, 0, 0, 0, 0, 1, 0, 2, 0, -1, 0, 0, -1, 2, 1, 1, 0, -1, -1, 2, 0, 0, -2, 2, 0, 0, 1, 0, 0, -2, 0, 1, 0, 0, 0, -1, -2, -1, -1, 0, 1, 2, 2, 0, 0, -2, 2, 2, -2, 1, 2, 2, 2, 0, 1, -1, 0, 0, 0, 0, 0, 0
      | 0, 0, -1, 0, 0, -1, 0, 0, -2, -1, -2, 1, 1, 0, -1, -1, -1, 2, 0, 1, 2, 2, 1, 2, -2, 0, 1, -1, -2, 0, -2, -1, 0, 1, 1, 0, 0, 0, -2, 0, 0, -1, 0, 0, 0, -2, 0, -2, 0, 1, 2, 1, 0, 2, 0, -1, 0, 1, -2, -1, 0, 2, 0, 1, 0, -1, 1, 0, 0, 0, 0, 2, -1, -2, -1, -2, 0, -1, 0, -2, -1, 0, 1, 1, 0, 2, 0, 0, 0, 1, 2, -1, 1, 0, -1, 0, 1, 0, -2, -2, 0, 0
      | 0, 0, 1, 0, 2, -1, -2, -1, 1, 0, 0, -2, -2, 1, -1, -1, 0, 1, 0, -2, 0, -1, -1, 1, 1, 1, -2, 0, 1, 1, -2, 2, 0, -2, 0, -1, 1, -2, 0, 0, 1, -2, 2, 0, 0, 0, 0, -2, 2, 0, -1, 1, -2, 0, 0, -1, -2, -1, -1, 0, -2, -2, 1, 1, 0, -1, 2, 0, 0, 0, 1, -2, 0, 1, 0, -1, 0, -1, -2, -2, -1, 0, -2, 0, 2, 1, -1, 0, 1, 0, -1, -2, 0, 0, -1, 2, 0, 0, 0, -1, 0, 0 |];
prec = [| 1, 0, 3
        | 1, 0, 2
        | 1, 0, 4
        | 1, 0, 5
        | 2, 3, 81
        | 2, 0, 13
        | 2, 1, 83
        | 2, 2, 32
        | 3, 0, 43
        | 3, -5, 36
        | 3, 14, 27
        | 3, 7, 37
        | 3, 0, 35
        | 3, 16, 46
        | 4, 10, 99
        | 5, 15, 100
        | 5, 8, 82
        | 5, 21, 40
        | 6, -2, 76
        | 6, -4, 62
        | 6, 13, 49
        | 6, 10, 61
        | 6, -4, 10
        | 7, -4, 63
        | 7, 0, 74
        | 7, 13, 93
        | 7, 1, 43
        | 7, 7, 59
        | 7, 7, 22
        | 8, 13, 98
        | 8, -7, 91
        | 8, 18, 78
        | 9, 0, 51
        | 9, 2, 67
        | 9, 2, 73
        | 10, 15, 62
        | 10, -1, 43
        | 10, 14, 47
        | 11, 13, 62
        | 11, 22, 12
        | 11, -4, 71
        | 11, -108, 31
        | 11, 15, 56
        | 11, -82, 6
        | 12, 0, 17
        | 12, 0, 80
        | 12, 18, 97
        | 13, -8, 59
        | 13, -7, 64
        | 13, -5, 14
        | 13, -4, 22
        | 13, 1, 71
        | 13, 18, 92
        | 14, 1, 67
        | 14, 1, 21
        | 14, 0, 72
        | 14, 3, 74
        | 14, 3, 71
        | 14, 3, 28
        | 14, 3, 39
        | 15, 0, 36
        | 15, -173, 71
        | 15, 11, 72
        | 15, -4, 83
        | 15, -127, 35
        | 16, 19, 93
        | 16, 18, 7
        | 16, 8, 56
        | 16, 0, 57
        | 16, 10, 71
        | 16, 18, 84
        | 16, 8, 67
        | 17, 20, 76
        | 17, 17, 58
        | 17, 14, 73
        | 18, -6, 94
        | 18, 11, 35
        | 18, 2, 72
        | 18, 5, 36
        | 18, 27, 25
        | 19, 9, 56
        | 19, 1, 68
        | 19, -3, 93
        | 19, 0, 70
        | 19, -3, 66
        | 19, 14, 41
        | 19, 9, 34
        | 20, 11, 87
        | 20, 21, 72
        | 20, 20, 28
        | 20, 5, 86
        | 20, 0, 9
        | 21, 10, 61
        | 21, -2, 67
        | 21, 0, 68
        | 21, -6, 36
        | 21, 5, 70
        | 21, -241, 53
        | 22, 3, 68
        | 22, 0, 70
        | 22, 0, 42
        | 22, 6, 51
        | 22, 0, 15
        | 22, 9, 36
        | 23, -2, 55
        | 23, 3, 74
        | 23, 1, 28
        | 23, 2, 101
        | 23, 9, 47
        | 23, 8, 9
        | 24, 22, 35
        | 24, 24, 64
        | 24, 10, 14
        | 24, -9, 61
        | 24, -3, 70
        | 24, 15, 67
        | 24, -4, 72
        | 24, 13, 69
        | 25, 0, 57
        | 25, 16, 78
        | 25, 11, 68
        | 26, -3, 47
        | 26, 1, 18
        | 26, 14, 74
        | 26, 0, 53
        | 26, 18, 43
        | 27, 22, 28
        | 27, 23, 71
        | 27, 14, 35
        | 27, -20, 54
        | 27, -7, 43
        | 27, 25, 74
        | 27, 23, 15
        | 28, 14, 83
        | 28, 4, 39
        | 28, 1, 68
        | 28, 10, 42
        | 28, 13, 70
        | 28, 2, 35
        | 28, -204, 56
        | 28, -173, 65
        | 28, 7, 15
        | 29, -2, 65
        | 29, 6, 59
        | 29, 11, 89
        | 29, -5, 68
        | 29, 14, 67
        | 30, 6, 68
        | 30, 6, 53
        | 30, 0, 71
        | 30, 4, 58
        | 30, 1, 61
        | 30, 11, 74
        | 30, 9, 13
        | 30, -3, 88
        | 30, 0, 70
        | 30, 12, 83
        | 30, 3, 79
        | 31, -3, 10
        | 31, 8, 48
        | 31, 2, 16
        | 31, 5, 26
        | 31, 3, 8
        | 31, 12, 74
        | 31, 12, 30
        | 32, -4, 12
        | 32, -1, 6
        | 32, 5, 51
        | 32, 3, 79
        | 33, 1, 21
        | 33, -227, 20
        | 33, 12, 50
        | 33, 0, 53
        | 34, 8, 72
        | 34, 13, 43
        | 34, 14, 97
        | 35, 22, 101
        | 35, 17, 71
        | 35, 24, 42
        | 35, -2, 36
        | 35, 23, 61
        | 36, 21, 72
        | 36, -2, 101
        | 37, 2, 14
        | 37, 2, 27
        | 37, 1, 36
        | 37, 3, 42
        | 37, 0, 72
        | 37, -1, 74
        | 37, 5, 28
        | 37, -1, 101
        | 37, -29, 54
        | 38, 12, 95
        | 38, 7, 23
        | 38, -6, 9
        | 38, -8, 11
        | 38, -7, 19
        | 38, 30, 55
        | 38, 26, 88
        | 39, 13, 42
        | 39, 10, 21
        | 39, 13, 70
        | 39, -3, 15
        | 39, 5, 36
        | 40, 11, 100
        | 40, -34, 82
        | 41, 3, 63
        | 41, -3, 95
        | 41, 1, 86
        | 41, 6, 47
        | 42, 10, 68
        | 42, 0, 74
        | 43, 2, 74
        | 43, 1, 14
        | 43, 0, 70
        | 44, 1, 17
        | 44, 0, 81
        | 44, 1, 87
        | 44, 3, 89
        | 45, -2, 41
        | 45, 9, 95
        | 45, 7, 24
        | 45, 11, 81
        | 46, 1, 83
        | 46, 18, 54
        | 47, -2, 29
        | 47, 1, 26
        | 47, 1, 101
        | 48, 2, 88
        | 48, 0, 18
        | 48, 0, 33
        | 48, 0, 63
        | 48, 1, 30
        | 48, -1, 51
        | 48, 0, 43
        | 49, -2, 10
        | 49, -2, 96
        | 49, 5, 71
        | 49, 12, 75
        | 50, 4, 22
        | 50, 0, 66
        | 50, 6, 24
        | 50, 5, 70
        | 50, 0, 21
        | 50, 5, 69
        | 50, 5, 88
        | 51, -4, 90
        | 51, 19, 43
        | 51, 9, 68
        | 51, 16, 61
        | 52, -27, 54
        | 52, -4, 37
        | 53, 7, 7
        | 53, -2, 56
        | 53, -5, 83
        | 53, 5, 101
        | 53, 0, 79
        | 53, -3, 36
        | 53, 5, 89
        | 54, -4, 68
        | 54, 13, 37
        | 54, 4, 52
        | 54, -2, 71
        | 54, 7, 35
        | 55, 0, 81
        | 55, 6, 14
        | 55, 5, 22
        | 55, 4, 78
        | 55, 0, 60
        | 55, 0, 93
        | 56, 2, 69
        | 56, 14, 90
        | 56, 6, 83
        | 56, 7, 65
        | 56, -3, 68
        | 56, -3, 81
        | 56, 4, 78
        | 56, 27, 61
        | 56, 12, 39
        | 56, 1, 25
        | 57, 8, 83
        | 57, 6, 78
        | 57, -2, 71
        | 57, 2, 94
        | 58, 25, 69
        | 58, 7, 55
        | 58, 26, 93
        | 58, 2, 35
        | 58, -152, 87
        | 58, -117, 62
        | 58, 30, 51
        | 59, 1, 81
        | 59, 2, 36
        | 59, 0, 28
        | 59, 2, 90
        | 60, -6, 69
        | 60, 5, 29
        | 60, 15, 13
        | 60, 27, 94
        | 60, -3, 25
        | 60, 24, 74
        | 60, -117, 86
        | 60, 6, 95
        | 60, 17, 56
        | 60, -3, 71
        | 60, -7, 92
        | 60, 11, 81
        | 61, 22, 36
        | 61, 15, 72
        | 61, -243, 15
        | 61, 18, 101
        | 61, -147, 83
        | 62, 2, 45
        | 62, 2, 22
        | 62, 4, 25
        | 62, 8, 7
        | 62, -1, 50
        | 62, -2, 43
        | 62, 9, 95
        | 63, 11, 29
        | 63, 3, 21
        | 64, 10, 68
        | 64, 1, 88
        | 64, 0, 28
        | 64, 4, 35
        | 64, 12, 61
        | 64, 9, 22
        | 65, 18, 15
        | 65, 10, 83
        | 65, 2, 59
        | 65, 17, 78
        | 65, 3, 69
        | 65, 9, 68
        | 65, 4, 14
        | 66, 25, 81
        | 66, 18, 15
        | 66, 27, 90
        | 66, 14, 68
        | 66, -5, 18
        | 66, 29, 47
        | 66, -3, 29
        | 66, 7, 43
        | 67, 11, 101
        | 67, 13, 42
        | 67, 10, 15
        | 67, 2, 68
        | 67, 5, 72
        | 67, 3, 36
        | 67, -230, 71
        | 68, 4, 74
        | 68, 0, 15
        | 68, 0, 72
        | 68, 6, 61
        | 68, 6, 36
        | 68, 3, 101
        | 68, 2, 83
        | 69, 9, 68
        | 69, 8, 59
        | 70, -9, 68
        | 70, -1, 36
        | 70, 28, 74
        | 70, 13, 35
        | 70, 24, 61
        | 70, 8, 72
        | 71, 2, 61
        | 71, 0, 42
        | 71, 2, 72
        | 71, 0, 83
        | 71, 2, 67
        | 71, 0, 68
        | 72, -230, 18
        | 72, 0, 101
        | 73, 8, 25
        | 73, 2, 48
        | 73, 10, 10
        | 73, 14, 15
        | 74, 4, 15
        | 74, 11, 83
        | 74, -2, 72
        | 74, 13, 36
        | 74, 15, 61
        | 74, 8, 101
        | 75, 3, 26
        | 75, 0, 89
        | 75, 2, 73
        | 75, 3, 31
        | 76, 24, 36
        | 76, 21, 35
        | 76, 20, 90
        | 76, 25, 67
        | 76, 27, 79
        | 76, 23, 77
        | 77, 1, 101
        | 77, 11, 63
        | 77, 10, 45
        | 77, 3, 19
        | 77, -50, 76
        | 77, -47, 44
        | 77, 11, 20
        | 78, -2, 61
        | 78, 2, 94
        | 78, 5, 101
        | 78, 9, 35
        | 78, 2, 74
        | 78, 0, 83
        | 79, 18, 88
        | 79, 8, 65
        | 79, -3, 67
        | 79, 27, 93
        | 80, 28, 36
        | 80, -141, 2
        | 80, 26, 45
        | 80, -147, 32
        | 80, -8, 8
        | 81, -2, 72
        | 81, 2, 71
        | 81, 7, 22
        | 81, 0, 90
        | 82, 10, 40
        | 82, 1, 100
        | 83, -238, 70
        | 83, 9, 61
        | 83, 11, 72
        | 83, 7, 36
        | 83, -4, 101
        | 83, -222, 71
        | 84, -6, 66
        | 84, 3, 70
        | 84, 8, 98
        | 84, 5, 96
        | 84, 7, 71
        | 84, -2, 73
        | 84, 4, 38
        | 84, 18, 81
        | 84, 14, 19
        | 85, -118, 91
        | 85, -6, 23
        | 85, 4, 35
        | 85, 25, 44
        | 85, 16, 55
        | 85, 4, 83
        | 86, 24, 39
        | 86, 6, 48
        | 86, 17, 63
        | 87, 9, 41
        | 87, 13, 62
        | 87, 0, 19
        | 87, 4, 60
        | 87, 18, 56
        | 87, 1, 95
        | 88, 7, 71
        | 88, 10, 72
        | 88, 16, 81
        | 88, -4, 56
        | 88, 10, 35
        | 88, -6, 51
        | 88, 7, 14
        | 88, 11, 78
        | 89, 0, 69
        | 89, 1, 65
        | 89, 2, 14
        | 89, 0, 79
        | 90, 14, 15
        | 90, 18, 57
        | 90, -9, 18
        | 90, 10, 36
        | 90, 30, 78
        | 91, 2, 47
        | 91, 0, 29
        | 91, 0, 85
        | 91, 1, 86
        | 91, 3, 69
        | 91, 2, 95
        | 91, -130, 75
        | 91, 3, 53
        | 92, 1, 68
        | 92, 0, 101
        | 92, 3, 33
        | 92, 18, 14
        | 92, -1, 93
        | 93, 3, 94
        | 93, 0, 24
        | 94, 13, 61
        | 94, 22, 83
        | 94, 12, 101
        | 94, 26, 72
        | 94, 5, 35
        | 94, 5, 67
        | 95, 4, 74
        | 95, 7, 89
        | 95, 7, 39
        | 95, 5, 13
        | 95, 6, 57
        | 95, -1, 25
        | 95, 0, 26
        | 95, 9, 35
        | 96, 12, 65
        | 96, -3, 38
        | 96, -5, 89
        | 96, 13, 55
        | 97, 0, 73
        | 97, 3, 18
        | 97, -1, 98
        | 97, 4, 78
        | 97, 6, 70
        | 97, 1, 81
        | 98, -152, 87
        | 98, -1, 35
        | 98, -2, 63
        | 98, 8, 25
        | 98, 10, 23
        | 98, 12, 18
        | 98, 9, 26
        | 99, 1, 102
        | 100, -42, 82
        | 100, -40, 5
        | 100, 6, 102
        | 101, 9, 102 |];
